c File: instances/36_0.40_1.col
c
c Description: Random graph of size 36 vertices and P(0.39999999999999997) of edges between any two vertices.
p col 36 630
e 1 4
e 1 5
e 1 6
e 1 9
e 1 10
e 1 11
e 1 13
e 1 14
e 1 15
e 1 16
e 1 19
e 1 20
e 1 22
e 1 23
e 1 25
e 1 27
e 1 28
e 1 33
e 1 34
e 1 36
e 2 5
e 2 7
e 2 10
e 2 13
e 2 16
e 2 18
e 2 19
e 2 20
e 2 25
e 2 28
e 2 31
e 2 34
e 2 35
e 2 36
e 3 4
e 3 10
e 3 12
e 3 15
e 3 16
e 3 17
e 3 19
e 3 23
e 3 28
e 3 29
e 3 31
e 3 32
e 3 36
e 4 6
e 4 8
e 4 9
e 4 12
e 4 17
e 4 18
e 4 22
e 4 24
e 4 25
e 4 33
e 4 35
e 4 36
e 5 9
e 5 10
e 5 11
e 5 13
e 5 15
e 5 21
e 5 23
e 5 24
e 5 26
e 5 28
e 5 32
e 6 11
e 6 13
e 6 15
e 6 16
e 6 18
e 6 19
e 6 20
e 6 21
e 6 22
e 6 23
e 6 25
e 6 26
e 6 27
e 6 29
e 7 8
e 7 9
e 7 11
e 7 12
e 7 14
e 7 15
e 7 17
e 7 18
e 7 20
e 7 28
e 7 30
e 7 31
e 7 35
e 8 9
e 8 11
e 8 24
e 8 30
e 8 33
e 9 11
e 9 12
e 9 13
e 9 14
e 9 21
e 9 23
e 9 29
e 9 30
e 9 35
e 9 36
e 10 18
e 10 19
e 10 20
e 10 21
e 10 25
e 10 27
e 10 29
e 10 31
e 10 32
e 11 15
e 11 16
e 11 18
e 11 19
e 11 21
e 11 23
e 11 25
e 11 27
e 11 28
e 11 30
e 11 36
e 12 14
e 12 15
e 12 16
e 12 19
e 12 21
e 12 23
e 12 24
e 12 25
e 12 28
e 12 30
e 12 31
e 12 32
e 12 33
e 12 34
e 12 35
e 12 36
e 13 16
e 13 17
e 13 18
e 13 21
e 13 22
e 13 23
e 13 25
e 13 26
e 13 28
e 13 29
e 13 31
e 13 33
e 13 35
e 14 17
e 14 20
e 14 23
e 14 28
e 14 30
e 14 32
e 14 35
e 15 16
e 15 17
e 15 19
e 15 22
e 15 23
e 15 27
e 15 30
e 15 34
e 16 17
e 16 19
e 16 20
e 16 21
e 16 24
e 16 25
e 16 32
e 17 21
e 17 25
e 17 29
e 17 31
e 17 33
e 17 34
e 17 36
e 18 21
e 18 23
e 18 28
e 18 31
e 18 32
e 18 33
e 19 29
e 19 30
e 20 21
e 20 29
e 20 31
e 20 32
e 20 36
e 21 25
e 21 30
e 21 31
e 21 36
e 22 23
e 22 27
e 22 28
e 22 29
e 22 34
e 22 36
e 23 35
e 24 26
e 24 28
e 24 30
e 24 33
e 24 34
e 25 26
e 25 28
e 25 29
e 25 30
e 25 33
e 25 35
e 25 36
e 26 27
e 26 32
e 26 34
e 26 36
e 27 30
e 27 32
e 28 30
e 28 32
e 29 33
e 29 34
e 29 36
e 31 32
e 31 33
e 31 35
e 32 33
e 32 34
e 33 35
e 33 36
e 34 35